Ce H O S
1.0
 11.492907951600   6.635435425057   0.000000000000
 -7.661932440823  13.270870850113   0.000000000000
  0.000000000000   0.000000000000  23.128022557252
Ce O S H
 48   100   1   2
Selective dynamics
Cartesian
   -0.000203932      6.635529969      1.089991223  F F F
    7.661733154      6.635529969      1.089991223  F F F
   -3.831170152     13.270965394      1.089991223  F F F
    3.830766934     13.270965394      1.089991223  F F F
    3.830766088      6.635519952      1.089995195  F F F
   11.492703174      6.635519952      1.089995195  F F F
   -0.000200132     13.270955377      1.089995195  F F F
    7.661736954     13.270955377      1.089995195  F F F
    1.915277713      3.317790788      1.090002344  F F F
   -1.915688508      9.953226213      1.090002344  F F F
    5.746248578      9.953226213      1.090002344  F F F
    1.915282358     16.588661638      1.090002344  F F F
    5.746244877      3.317780297      1.090011102  F F F
    1.915278657      9.953215722      1.090011102  F F F
    9.577215743      9.953215722      1.090011102  F F F
    5.746249522     16.588651147      1.090011102  F F F
    3.829856345      2.201435097      4.224841013  T T T
   -1.924831960     12.168758474      4.224993549  T T T
   -5.756044953     12.159146275      4.240327669  T T T
   -1.907047843      5.534513087      4.243286490  T T T
    0.003361093      2.207182190      4.243944650  T T T
   -3.833412463      8.851869628      4.244132209  T T T
   -0.005109218     15.479864359      4.248747805  T T T
    9.574379859      5.528482558      4.249905199  T T T
    3.828354371     15.480485235      4.250214635  T T T
    1.920098536      5.538460550      4.263945212  T T T
    0.009814742      8.846526951      4.264577484  T T T
    7.658439157      8.844632186      4.265431662  T T T
    5.741500370     12.162550445      4.267244612  T T T
    5.741638789      5.545052599      4.277575360  T T T
    1.926697920     12.153273482      4.278241246  T T T
    3.830431042      8.847921535      4.313109848  T T T
    3.834156389      4.293157455      7.395928967  T T T
   -0.110535473     11.126419833      7.396021673  T T T
    7.730439028     11.097955253      7.406175250  T T T
   -1.926990370     14.369828322      7.424108208  T T T
    1.912246823     14.372514668      7.429063063  T T T
    7.656626719      4.424023286      7.429169375  T T T
    1.901489488      1.067814246      7.429453156  T T T
    9.601387985      7.734291648      7.429614532  T T T
   -3.870289924     11.065092059      7.429713270  T T T
   -1.924475487      7.764680920      7.429723713  T T T
    0.016265174      4.403463375      7.429727649  T T T
    5.752355621     14.399775262      7.430111244  T T T
    3.810904505     17.682404512      7.432598042  T T T
    1.854528536      7.703676632      7.538489587  T T T
    5.829546281      7.782945311      7.551407440  T T T
    3.904207635     11.110683005      7.559881792  T T T
   -0.000400882      4.423784521      0.307915309  F F F
    7.661536204      4.423784521      0.307915309  F F F
   -3.831367102     11.059219946      0.307915309  F F F
    3.830569984     11.059219946      0.307915309  F F F
    1.915246156      1.105769790      0.307926189  F F F
   -1.915720065      7.741205215      0.307926189  F F F
    5.746217021      7.741205215      0.307926189  F F F
    1.915250801     14.376640640      0.307926189  F F F
    3.830951792      4.423816483      0.307962051  F F F
   -0.000014429     11.059251909      0.307962051  F F F
    7.661922657     11.059251909      0.307962051  F F F
    3.830956437     17.694687334      0.307962051  F F F
    1.915303660      7.741426083      0.308239829  F F F
    9.577240746      7.741426083      0.308239829  F F F
   -1.915662561     14.376861508      0.308239829  F F F
    5.746274525     14.376861508      0.308239829  F F F
   -1.915715909      5.529597236      1.871765810  F F F
    5.746221177      5.529597236      1.871765810  F F F
   -5.746682130     12.165032661      1.871765810  F F F
    1.915254956     12.165032661      1.871765810  F F F
   -0.000397363      2.211771902      1.872043678  F F F
   -3.831363583      8.847207327      1.872043678  F F F
    3.830573503      8.847207327      1.872043678  F F F
   -0.000392717     15.482642752      1.872043678  F F F
    1.915308416      5.529819753      1.872078483  F F F
    9.577245502      5.529819753      1.872078483  F F F
   -1.915657804     12.165255178      1.872078483  F F F
    5.746279282     12.165255178      1.872078483  F F F
    3.830953698      2.211803314      1.872088320  F F F
   -0.000012523      8.847238739      1.872088320  F F F
    7.661924563      8.847238739      1.872088320  F F F
    3.830958343     15.482674164      1.872088320  F F F
   -3.833970595     13.269015672      3.429874443  T T T
   -0.002241985     -0.006883489      3.433681989  T T T
   -5.753652870      9.954140228      3.434074171  T T T
    1.917471915      3.321012765      3.439818838  T T T
   -1.911743578      9.952989324      3.439955449  T T T
    5.747205480      3.327226904      3.443661944  T T T
    0.008396317     13.266830747      3.443937000  T T T
    1.907854734     16.584591622      3.446975172  T T T
   -1.914775927      3.322173183      3.449636207  T T T
   -3.827219052      6.633689695      3.449846664  T T T
    0.006440630      6.639103681      3.450565539  T T T
    5.744329166      9.952047092      3.456976097  T T T
    7.645865087      6.640641702      3.458309160  T T T
    3.827404806     13.254644436      3.458805234  T T T
    1.921278519      9.953145942      3.467721178  T T T
    3.834008262      6.640790052      3.467849748  T T T
   -1.910903315     14.379321226      5.048976211  T T T
    9.596206213      7.727706181      5.054530046  T T T
    1.910456898      1.093179678      5.054749380  T T T
   -3.844419320     11.060510906      5.054776042  T T T
    5.744011560     14.398472068      5.055953523  T T T
    3.822377660     17.689658335      5.064495876  T T T
    3.831149735      4.398537273      5.070402475  T T T
   -0.021586738     11.070749350      5.070741306  T T T
   -1.908727705      7.757373645      5.076116422  T T T
    0.018095961      4.421463197      5.076466559  T T T
    7.670588475     11.064204797      5.076516781  T T T
    1.913613523     14.363346364      5.082912433  T T T
    7.648162050      4.430055127      5.083404371  T T T
    1.917417427      7.742564368      5.104317156  T T T
    5.725781568      7.776107316      5.125321395  T T T
    3.849972308     11.023515154      5.126046694  T T T
   -1.972405276     12.190718351      6.589906950  T T T
    3.825294682      2.149447528      6.590013800  T T T
   -1.874374599      5.552603717      6.601702406  T T T
   -5.767560882     12.152275501      6.609923731  T T T
    0.010115451      2.196176216      6.610180487  T T T
   -3.838880453      8.863361396      6.610620706  T T T
   -0.003995619     15.481618260      6.615107113  T T T
    3.821720891     15.487017005      6.615788985  T T T
    9.576239062      5.519531389      6.615891691  T T T
    7.738911331      8.810801433      6.618869679  T T T
    5.752927370     12.246812487      6.622595165  T T T
    1.943744854      5.536322437      6.647503031  T T T
    0.018199700      8.865810289      6.649038893  T T T
    1.915236368     12.137325150      6.653442412  T T T
    5.719823162      5.545747681      6.655622874  T T T
    3.751918622      8.800091612      6.837350194  T T T
    5.897567637     10.034101597      8.003548391  T T T
    1.930562309      3.269752479      8.224493810  T T T
   -1.948144503      9.990013827      8.225823110  T T T
   -0.048408449     13.275699515      8.226725612  T T T
    5.725167284      3.275795616      8.227867617  T T T
   -3.782737765      6.675237174      8.230662812  T T T
   -1.856352987      3.338557910      8.230703120  T T T
    1.899128952     16.579892753      8.236944123  T T T
   -0.000941309     -0.017068722      8.246321692  T T T
   -5.761380366      9.960143204      8.246361199  T T T
    3.831406706     13.309403746      8.246481507  T T T
    7.694295319      6.618337105      8.246635681  T T T
   -3.857371385     13.255332960      8.251717633  T T T
    0.001331057      6.634915103      8.254742255  T T T
    1.686196593     10.077506153      8.413233873  T T T
    3.797889567      6.373551624      8.422817428  T T T
    5.130037226      8.173876646      9.851479953  T T T
    3.942358894     10.335324070      9.853912676  T T T
    2.699046319      8.245128969      9.955004215  T T T
    4.032661851      8.976094597     11.882315126  T T T
    3.967626381      8.943767248     10.448157053  T T T
    1.912147332      9.831783726      9.340503015  T T T
    3.829156477      6.678362615      9.355618346  T T T
